sat
(model 
  (define-fun |nWeight(2)| () Int
    101)
  (define-fun |required(ezcsp__gt(nWeight(3),ezcsp__mn(ezcsp__pl(68,13),13)))| () Bool
    false)
  (define-fun |required(ezcsp__eq(nWeight(1),152))| () Bool
    false)
  (define-fun |required(ezcsp__leq(nWeight(6),ezcsp__mn(ezcsp__pl(99,78),78)))| () Bool
    false)
  (define-fun |leafPos(8,6)| () Bool
    false)
  (define-fun |required(ezcsp__leq(nWeight(1),ezcsp__mn(ezcsp__pl(6,18),6)))| () Bool
    false)
  (define-fun |required(ezcsp__eq(nWeight(6),ezcsp__pl(nWeight(5),13)))| () Bool
    false)
  (define-fun |required(ezcsp__eq(nWeight(1),84))| () Bool
    false)
  (define-fun |nWeight(6)| () Int
    60)
  (define-fun |posColor(4,blue)| () Bool
    true)
  (define-fun |nWeight(5)| () Int
    46)
  (define-fun |leafPos(5,5)| () Bool
    false)
  (define-fun |478| () Bool
    false)
  (define-fun |required(ezcsp__gt(nWeight(2),ezcsp__mn(ezcsp__pl(40,61),40)))| () Bool
    false)
  (define-fun |leafPos(8,1)| () Bool
    false)
  (define-fun |required(ezcsp__eq(nWeight(4),ezcsp__pl(nWeight(3),78)))| () Bool
    false)
  (define-fun |leafPos(3,7)| () Bool
    true)
  (define-fun |458| () Bool
    false)
  (define-fun |required(ezcsp__gt(nWeight(3),ezcsp__mn(ezcsp__pl(67,9),9)))| () Bool
    false)
  (define-fun |required(ezcsp__eq(nWeight(2),101))| () Bool
    true)
  (define-fun |462| () Bool
    false)
  (define-fun |leafPos(7,3)| () Bool
    false)
  (define-fun |required(ezcsp__leq(nWeight(4),ezcsp__mn(ezcsp__pl(6,18),6)))| () Bool
    false)
  (define-fun |required(ezcsp__leq(nWeight(5),ezcsp__mn(ezcsp__pl(99,78),78)))| () Bool
    false)
  (define-fun |leafPos(1,6)| () Bool
    false)
  (define-fun |posColor(6,blue)| () Bool
    true)
  (define-fun |470| () Bool
    false)
  (define-fun |leafPos(4,2)| () Bool
    false)
  (define-fun |required(ezcsp__eq(nWeight(5),ezcsp__pl(nWeight(4),9)))| () Bool
    false)
  (define-fun |posColor(3,blue)| () Bool
    false)
  (define-fun |required(ezcsp__eq(nWeight(5),24))| () Bool
    false)
  (define-fun |required(ezcsp__eq(nWeight(5),177))| () Bool
    false)
  (define-fun |posColor(1,green)| () Bool
    false)
  (define-fun |required(ezcsp__gt(nWeight(6),ezcsp__mn(ezcsp__pl(40,61),40)))| () Bool
    false)
  (define-fun |427| () Bool
    false)
  (define-fun |leafPos(7,7)| () Bool
    false)
  (define-fun |required(ezcsp__eq(nWeight(5),81))| () Bool
    false)
  (define-fun |required(ezcsp__eq(nWeight(3),ezcsp__pl(nWeight(2),85)))| () Bool
    false)
  (define-fun |leafPos(5,7)| () Bool
    false)
  (define-fun |leafPos(3,1)| () Bool
    false)
  (define-fun |required(ezcsp__eq(nWeight(1),74))| () Bool
    false)
  (define-fun |leafPos(2,6)| () Bool
    false)
  (define-fun |required(ezcsp__eq(nWeight(6),177))| () Bool
    false)
  (define-fun |required(ezcsp__gt(nWeight(4),ezcsp__mn(ezcsp__pl(78,14),14)))| () Bool
    false)
  (define-fun |required(ezcsp__eq(nWeight(6),178))| () Bool
    false)
  (define-fun |leafPos(1,5)| () Bool
    false)
  (define-fun |leafPos(2,3)| () Bool
    false)
  (define-fun |required(ezcsp__eq(nWeight(1),113))| () Bool
    false)
  (define-fun |required(ezcsp__leq(nWeight(1),ezcsp__mn(ezcsp__pl(93,85),85)))| () Bool
    false)
  (define-fun |446| () Bool
    false)
  (define-fun |posColor(5,red)| () Bool
    false)
  (define-fun |required(ezcsp__eq(nWeight(1),61))| () Bool
    false)
  (define-fun |nWeight(3)| () Int
    24)
  (define-fun |required(ezcsp__gt(nWeight(3),ezcsp__mn(ezcsp__pl(6,18),6)))| () Bool
    false)
  (define-fun |486| () Bool
    false)
  (define-fun |required(ezcsp__eq(nWeight(1),184))| () Bool
    false)
  (define-fun |464| () Bool
    false)
  (define-fun |leafPos(7,5)| () Bool
    false)
  (define-fun |461| () Bool
    false)
  (define-fun |required(ezcsp__eq(nWeight(2),ezcsp__pl(nWeight(1),40)))| () Bool
    false)
  (define-fun |leafPos(4,0)| () Bool
    false)
  (define-fun |required(ezcsp__leq(nWeight(5),ezcsp__mn(ezcsp__pl(67,9),9)))| () Bool
    false)
  (define-fun |required(ezcsp__eq(nWeight(1),46))| () Bool
    false)
  (define-fun |leafPos(6,6)| () Bool
    false)
  (define-fun |required(ezcsp__eq(nWeight(1),91))| () Bool
    false)
  (define-fun |required(ezcsp__eq(nWeight(1),49))| () Bool
    false)
  (define-fun |required(ezcsp__gt(nWeight(4),ezcsp__mn(ezcsp__pl(68,13),13)))| () Bool
    false)
  (define-fun |required(ezcsp__eq(nWeight(4),151))| () Bool
    false)
  (define-fun |required(ezcsp__leq(nWeight(1),ezcsp__mn(ezcsp__pl(52,99),52)))| () Bool
    false)
  (define-fun |posColor(3,red)| () Bool
    false)
  (define-fun |431| () Bool
    false)
  (define-fun |432| () Bool
    false)
  (define-fun |required(ezcsp__eq(nWeight(7),92))| () Bool
    false)
  (define-fun |required(ezcsp__eq(nWeight(1),125))| () Bool
    false)
  (define-fun |posColor(5,blue)| () Bool
    true)
  (define-fun |required(ezcsp__eq(nWeight(3),ezcsp__pl(nWeight(2),6)))| () Bool
    false)
  (define-fun |leafPos(4,3)| () Bool
    false)
  (define-fun |required(ezcsp__leq(nWeight(3),ezcsp__mn(ezcsp__pl(40,61),40)))| () Bool
    false)
  (define-fun |434| () Bool
    false)
  (define-fun |required(ezcsp__eq(nWeight(1),133))| () Bool
    false)
  (define-fun |467| () Bool
    false)
  (define-fun |leafPos(2,7)| () Bool
    false)
  (define-fun |required(ezcsp__eq(nWeight(5),ezcsp__pl(nWeight(4),85)))| () Bool
    false)
  (define-fun |required(ezcsp__eq(nWeight(2),ezcsp__pl(nWeight(1),6)))| () Bool
    false)
  (define-fun |required(ezcsp__eq(nWeight(1),12))| () Bool
    false)
  (define-fun |required(ezcsp__eq(nWeight(1),66))| () Bool
    false)
  (define-fun |489| () Bool
    false)
  (define-fun |required(ezcsp__eq(nWeight(3),178))| () Bool
    false)
  (define-fun |leafPos(2,1)| () Bool
    false)
  (define-fun |leafPos(4,6)| () Bool
    false)
  (define-fun |leafPos(5,0)| () Bool
    false)
  (define-fun |required(ezcsp__leq(nWeight(6),ezcsp__mn(ezcsp__pl(6,18),6)))| () Bool
    false)
  (define-fun |required(ezcsp__eq(nWeight(5),ezcsp__pl(nWeight(4),6)))| () Bool
    false)
  (define-fun |required(ezcsp__eq(nWeight(7),24))| () Bool
    false)
  (define-fun |posColor(2,blue)| () Bool
    false)
  (define-fun |required(ezcsp__leq(nWeight(6),ezcsp__mn(ezcsp__pl(68,13),13)))| () Bool
    false)
  (define-fun |required(ezcsp__eq(nWeight(1),112))| () Bool
    false)
  (define-fun |required(ezcsp__eq(nWeight(1),178))| () Bool
    false)
  (define-fun |leafPos(7,4)| () Bool
    false)
  (define-fun |required(ezcsp__leq(nWeight(5),ezcsp__mn(ezcsp__pl(52,99),52)))| () Bool
    false)
  (define-fun |required(ezcsp__leq(nWeight(2),ezcsp__mn(ezcsp__pl(6,18),6)))| () Bool
    false)
  (define-fun |required(ezcsp__gt(nWeight(5),ezcsp__mn(ezcsp__pl(78,14),14)))| () Bool
    false)
  (define-fun |required(ezcsp__eq(nWeight(6),ezcsp__pl(nWeight(5),40)))| () Bool
    false)
  (define-fun |required(ezcsp__leq(nWeight(6),ezcsp__mn(ezcsp__pl(52,99),52)))| () Bool
    false)
  (define-fun |468| () Bool
    false)
  (define-fun |posColor(2,green)| () Bool
    true)
  (define-fun |428| () Bool
    false)
  (define-fun |required(ezcsp__eq(nWeight(3),ezcsp__pl(nWeight(2),52)))| () Bool
    false)
  (define-fun |required(ezcsp__leq(nWeight(2),ezcsp__mn(ezcsp__pl(93,85),85)))| () Bool
    false)
  (define-fun |required(ezcsp__gt(nWeight(3),ezcsp__mn(ezcsp__pl(99,78),78)))| () Bool
    false)
  (define-fun |required(ezcsp__eq(nWeight(7),ezcsp__pl(nWeight(6),78)))| () Bool
    false)
  (define-fun |leafPos(4,5)| () Bool
    true)
  (define-fun |required(ezcsp__eq(nWeight(3),101))| () Bool
    false)
  (define-fun |480| () Bool
    true)
  (define-fun |required(ezcsp__eq(nWeight(1),146))| () Bool
    false)
  (define-fun |required(ezcsp__eq(nWeight(3),ezcsp__pl(nWeight(2),14)))| () Bool
    false)
  (define-fun |required(ezcsp__gt(nWeight(4),ezcsp__mn(ezcsp__pl(40,61),40)))| () Bool
    false)
  (define-fun |required(ezcsp__gt(nWeight(5),ezcsp__mn(ezcsp__pl(67,9),9)))| () Bool
    false)
  (define-fun |leafPos(6,7)| () Bool
    false)
  (define-fun |required(ezcsp__eq(nWeight(4),ezcsp__pl(nWeight(3),14)))| () Bool
    false)
  (define-fun |459| () Bool
    false)
  (define-fun |required(ezcsp__eq(nWeight(3),ezcsp__pl(nWeight(2),40)))| () Bool
    false)
  (define-fun |required(ezcsp__leq(nWeight(3),ezcsp__mn(ezcsp__pl(52,99),52)))| () Bool
    false)
  (define-fun |leafPos(6,2)| () Bool
    false)
  (define-fun |leafPos(4,1)| () Bool
    false)
  (define-fun |required(ezcsp__eq(nWeight(3),177))| () Bool
    false)
  (define-fun |required(ezcsp__eq(nWeight(7),ezcsp__pl(nWeight(6),6)))| () Bool
    false)
  (define-fun |required(ezcsp__eq(nWeight(6),ezcsp__pl(nWeight(5),85)))| () Bool
    false)
  (define-fun |required(ezcsp__gt(nWeight(3),ezcsp__mn(ezcsp__pl(93,85),85)))| () Bool
    false)
  (define-fun |required(ezcsp__gt(nWeight(1),ezcsp__mn(ezcsp__pl(67,9),9)))| () Bool
    false)
  (define-fun |required(ezcsp__eq(nWeight(1),137))| () Bool
    false)
  (define-fun |required(ezcsp__eq(nWeight(1),80))| () Bool
    false)
  (define-fun |required(ezcsp__eq(nWeight(1),177))| () Bool
    false)
  (define-fun |required(ezcsp__gt(nWeight(3),ezcsp__mn(ezcsp__pl(40,61),40)))| () Bool
    false)
  (define-fun |455| () Bool
    false)
  (define-fun |leafPos(8,5)| () Bool
    false)
  (define-fun |required(ezcsp__leq(nWeight(4),ezcsp__mn(ezcsp__pl(52,99),52)))| () Bool
    false)
  (define-fun |required(ezcsp__eq(nWeight(1),77))| () Bool
    false)
  (define-fun |required(ezcsp__eq(nWeight(5),ezcsp__pl(nWeight(4),78)))| () Bool
    false)
  (define-fun |required(ezcsp__eq(nWeight(1),81))| () Bool
    false)
  (define-fun |required(ezcsp__eq(nWeight(1),107))| () Bool
    false)
  (define-fun |required(ezcsp__eq(nWeight(6),101))| () Bool
    false)
  (define-fun |444| () Bool
    false)
  (define-fun |required(ezcsp__eq(nWeight(1),108))| () Bool
    false)
  (define-fun |437| () Bool
    false)
  (define-fun |433| () Bool
    false)
  (define-fun |required(ezcsp__eq(nWeight(2),151))| () Bool
    false)
  (define-fun |leafPos(2,5)| () Bool
    false)
  (define-fun |required(ezcsp__eq(nWeight(5),ezcsp__pl(nWeight(4),52)))| () Bool
    false)
  (define-fun |required(ezcsp__leq(nWeight(4),ezcsp__mn(ezcsp__pl(67,9),9)))| () Bool
    false)
  (define-fun |required(ezcsp__eq(nWeight(3),ezcsp__pl(nWeight(2),13)))| () Bool
    false)
  (define-fun |posColor(4,green)| () Bool
    false)
  (define-fun |leafPos(4,7)| () Bool
    false)
  (define-fun |required(ezcsp__eq(nWeight(4),ezcsp__pl(nWeight(3),9)))| () Bool
    true)
  (define-fun |required(ezcsp__eq(nWeight(4),178))| () Bool
    false)
  (define-fun |leafPos(7,0)| () Bool
    true)
  (define-fun |required(ezcsp__eq(nWeight(1),20))| () Bool
    false)
  (define-fun |required(ezcsp__eq(nWeight(1),171))| () Bool
    false)
  (define-fun |451| () Bool
    false)
  (define-fun |required(ezcsp__eq(nWeight(1),101))| () Bool
    false)
  (define-fun |required(ezcsp__leq(nWeight(2),ezcsp__mn(ezcsp__pl(99,78),78)))| () Bool
    false)
  (define-fun |required(ezcsp__leq(nWeight(5),ezcsp__mn(ezcsp__pl(40,61),40)))| () Bool
    false)
  (define-fun |required(ezcsp__eq(nWeight(2),81))| () Bool
    false)
  (define-fun |required(ezcsp__eq(nWeight(1),102))| () Bool
    false)
  (define-fun |required(ezcsp__leq(nWeight(1),ezcsp__mn(ezcsp__pl(99,78),78)))| () Bool
    false)
  (define-fun |required(ezcsp__eq(nWeight(7),177))| () Bool
    false)
  (define-fun |leafPos(2,4)| () Bool
    false)
  (define-fun |posColor(6,red)| () Bool
    false)
  (define-fun |482| () Bool
    false)
  (define-fun |required(ezcsp__leq(nWeight(1),ezcsp__mn(ezcsp__pl(78,14),14)))| () Bool
    false)
  (define-fun |required(ezcsp__eq(nWeight(2),ezcsp__pl(nWeight(1),52)))| () Bool
    false)
  (define-fun |required(ezcsp__gt(nWeight(1),ezcsp__mn(ezcsp__pl(93,85),85)))| () Bool
    false)
  (define-fun |450| () Bool
    false)
  (define-fun |required(ezcsp__eq(nWeight(5),ezcsp__pl(nWeight(4),40)))| () Bool
    false)
  (define-fun |required(ezcsp__eq(nWeight(1),99))| () Bool
    false)
  (define-fun |required(ezcsp__gt(nWeight(4),ezcsp__mn(ezcsp__pl(6,18),6)))| () Bool
    false)
  (define-fun |441| () Bool
    false)
  (define-fun |required(ezcsp__eq(nWeight(6),81))| () Bool
    false)
  (define-fun |485| () Bool
    false)
  (define-fun |required(ezcsp__leq(nWeight(6),ezcsp__mn(ezcsp__pl(93,85),85)))| () Bool
    true)
  (define-fun |479| () Bool
    false)
  (define-fun |required(ezcsp__leq(nWeight(4),ezcsp__mn(ezcsp__pl(99,78),78)))| () Bool
    false)
  (define-fun |required(ezcsp__gt(nWeight(5),ezcsp__mn(ezcsp__pl(68,13),13)))| () Bool
    false)
  (define-fun |required(ezcsp__gt(nWeight(2),ezcsp__mn(ezcsp__pl(52,99),52)))| () Bool
    false)
  (define-fun |430| () Bool
    false)
  (define-fun |required(ezcsp__leq(nWeight(6),ezcsp__mn(ezcsp__pl(78,14),14)))| () Bool
    false)
  (define-fun |required(ezcsp__eq(nWeight(4),92))| () Bool
    false)
  (define-fun |required(ezcsp__eq(nWeight(7),178))| () Bool
    false)
  (define-fun |required(ezcsp__gt(nWeight(4),ezcsp__mn(ezcsp__pl(99,78),78)))| () Bool
    false)
  (define-fun |required(ezcsp__gt(nWeight(1),ezcsp__mn(ezcsp__pl(52,99),52)))| () Bool
    false)
  (define-fun |447| () Bool
    false)
  (define-fun |required(ezcsp__eq(nWeight(1),76))| () Bool
    false)
  (define-fun |488| () Bool
    false)
  (define-fun |required(ezcsp__eq(nWeight(3),ezcsp__pl(nWeight(2),78)))| () Bool
    false)
  (define-fun |required(ezcsp__eq(nWeight(5),178))| () Bool
    false)
  (define-fun |leafPos(5,1)| () Bool
    false)
  (define-fun |required(ezcsp__eq(nWeight(5),92))| () Bool
    false)
  (define-fun |required(ezcsp__eq(nWeight(4),81))| () Bool
    false)
  (define-fun |posColor(1,blue)| () Bool
    true)
  (define-fun |472| () Bool
    false)
  (define-fun |required(ezcsp__gt(nWeight(5),ezcsp__mn(ezcsp__pl(40,61),40)))| () Bool
    false)
  (define-fun |posColor(1,red)| () Bool
    false)
  (define-fun |leafPos(1,0)| () Bool
    false)
  (define-fun |required(ezcsp__eq(nWeight(1),19))| () Bool
    false)
  (define-fun |required(ezcsp__eq(nWeight(1),65))| () Bool
    false)
  (define-fun |required(ezcsp__eq(nWeight(7),ezcsp__pl(nWeight(6),40)))| () Bool
    false)
  (define-fun |454| () Bool
    false)
  (define-fun |440| () Bool
    false)
  (define-fun |leafPos(6,3)| () Bool
    false)
  (define-fun |leafPos(7,1)| () Bool
    false)
  (define-fun |leafPos(8,7)| () Bool
    false)
  (define-fun |required(ezcsp__leq(nWeight(5),ezcsp__mn(ezcsp__pl(93,85),85)))| () Bool
    false)
  (define-fun |required(ezcsp__eq(nWeight(7),76))| () Bool
    false)
  (define-fun |leafPos(6,5)| () Bool
    false)
  (define-fun |posColor(7,green)| () Bool
    false)
  (define-fun |required(ezcsp__gt(nWeight(5),ezcsp__mn(ezcsp__pl(99,78),78)))| () Bool
    false)
  (define-fun |required(ezcsp__gt(nWeight(4),ezcsp__mn(ezcsp__pl(93,85),85)))| () Bool
    false)
  (define-fun |required(ezcsp__eq(nWeight(5),76))| () Bool
    false)
  (define-fun |leafPos(1,1)| () Bool
    true)
  (define-fun |required(ezcsp__leq(nWeight(4),ezcsp__mn(ezcsp__pl(40,61),40)))| () Bool
    false)
  (define-fun |required(ezcsp__leq(nWeight(1),ezcsp__mn(ezcsp__pl(40,61),40)))| () Bool
    false)
  (define-fun |required(ezcsp__eq(nWeight(2),76))| () Bool
    false)
  (define-fun |required(ezcsp__gt(nWeight(6),ezcsp__mn(ezcsp__pl(52,99),52)))| () Bool
    false)
  (define-fun |490| () Bool
    false)
  (define-fun |required(ezcsp__eq(nWeight(1),130))| () Bool
    true)
  (define-fun |required(ezcsp__eq(nWeight(7),ezcsp__pl(nWeight(6),9)))| () Bool
    false)
  (define-fun |required(ezcsp__eq(nWeight(1),53))| () Bool
    false)
  (define-fun |required(ezcsp__leq(nWeight(2),ezcsp__mn(ezcsp__pl(78,14),14)))| () Bool
    false)
  (define-fun |476| () Bool
    false)
  (define-fun |477| () Bool
    false)
  (define-fun |required(ezcsp__eq(nWeight(3),151))| () Bool
    false)
  (define-fun |leafPos(3,6)| () Bool
    false)
  (define-fun |required(ezcsp__gt(nWeight(1),ezcsp__mn(ezcsp__pl(68,13),13)))| () Bool
    false)
  (define-fun |leafPos(3,5)| () Bool
    false)
  (define-fun |posColor(2,red)| () Bool
    false)
  (define-fun |required(ezcsp__leq(nWeight(4),ezcsp__mn(ezcsp__pl(68,13),13)))| () Bool
    true)
  (define-fun |required(ezcsp__eq(nWeight(1),54))| () Bool
    false)
  (define-fun |required(ezcsp__gt(nWeight(2),ezcsp__mn(ezcsp__pl(99,78),78)))| () Bool
    false)
  (define-fun |required(ezcsp__eq(nWeight(1),24))| () Bool
    false)
  (define-fun |438| () Bool
    false)
  (define-fun |required(ezcsp__leq(nWeight(3),ezcsp__mn(ezcsp__pl(6,18),6)))| () Bool
    false)
  (define-fun |leafPos(5,2)| () Bool
    false)
  (define-fun |required(ezcsp__leq(nWeight(2),ezcsp__mn(ezcsp__pl(67,9),9)))| () Bool
    false)
  (define-fun |required(ezcsp__eq(nWeight(5),ezcsp__pl(nWeight(4),13)))| () Bool
    true)
  (define-fun |required(ezcsp__gt(nWeight(1),ezcsp__mn(ezcsp__pl(78,14),14)))| () Bool
    false)
  (define-fun |required(ezcsp__leq(nWeight(4),ezcsp__mn(ezcsp__pl(93,85),85)))| () Bool
    false)
  (define-fun |leafPos(4,4)| () Bool
    false)
  (define-fun |leafPos(3,2)| () Bool
    false)
  (define-fun |required(ezcsp__leq(nWeight(3),ezcsp__mn(ezcsp__pl(99,78),78)))| () Bool
    false)
  (define-fun |posColor(7,blue)| () Bool
    true)
  (define-fun |required(ezcsp__eq(nWeight(6),ezcsp__pl(nWeight(5),9)))| () Bool
    false)
  (define-fun |leafPos(6,1)| () Bool
    false)
  (define-fun |required(ezcsp__eq(nWeight(5),ezcsp__pl(nWeight(4),14)))| () Bool
    false)
  (define-fun |required(ezcsp__gt(nWeight(3),ezcsp__mn(ezcsp__pl(78,14),14)))| () Bool
    false)
  (define-fun |leafPos(2,0)| () Bool
    false)
  (define-fun |required(ezcsp__eq(nWeight(1),118))| () Bool
    false)
  (define-fun |required(ezcsp__eq(nWeight(6),ezcsp__pl(nWeight(5),78)))| () Bool
    false)
  (define-fun |required(ezcsp__eq(nWeight(3),24))| () Bool
    true)
  (define-fun |posColor(7,red)| () Bool
    false)
  (define-fun |required(ezcsp__eq(nWeight(1),151))| () Bool
    false)
  (define-fun |posColor(6,green)| () Bool
    false)
  (define-fun |required(ezcsp__eq(nWeight(6),ezcsp__pl(nWeight(5),14)))| () Bool
    true)
  (define-fun |required(ezcsp__eq(nWeight(3),76))| () Bool
    false)
  (define-fun |required(ezcsp__leq(nWeight(3),ezcsp__mn(ezcsp__pl(78,14),14)))| () Bool
    false)
  (define-fun |required(ezcsp__eq(nWeight(6),ezcsp__pl(nWeight(5),6)))| () Bool
    false)
  (define-fun |required(ezcsp__eq(nWeight(6),151))| () Bool
    false)
  (define-fun |435| () Bool
    false)
  (define-fun |required(ezcsp__leq(nWeight(6),ezcsp__mn(ezcsp__pl(40,61),40)))| () Bool
    false)
  (define-fun |452| () Bool
    false)
  (define-fun |481| () Bool
    false)
  (define-fun |required(ezcsp__eq(nWeight(6),76))| () Bool
    false)
  (define-fun |leafPos(2,2)| () Bool
    true)
  (define-fun |required(ezcsp__gt(nWeight(4),ezcsp__mn(ezcsp__pl(52,99),52)))| () Bool
    false)
  (define-fun |leafPos(3,0)| () Bool
    false)
  (define-fun |484| () Bool
    false)
  (define-fun |required(ezcsp__eq(nWeight(7),ezcsp__pl(nWeight(6),52)))| () Bool
    false)
  (define-fun |457| () Bool
    false)
  (define-fun |required(ezcsp__gt(nWeight(1),ezcsp__mn(ezcsp__pl(6,18),6)))| () Bool
    false)
  (define-fun |leafPos(8,2)| () Bool
    false)
  (define-fun |leafPos(7,6)| () Bool
    false)
  (define-fun |required(ezcsp__eq(nWeight(4),76))| () Bool
    false)
  (define-fun |required(ezcsp__eq(nWeight(2),ezcsp__pl(nWeight(1),14)))| () Bool
    false)
  (define-fun |required(ezcsp__eq(nWeight(4),ezcsp__pl(nWeight(3),13)))| () Bool
    false)
  (define-fun |required(ezcsp__eq(nWeight(4),ezcsp__pl(nWeight(3),6)))| () Bool
    false)
  (define-fun |required(ezcsp__gt(nWeight(1),ezcsp__mn(ezcsp__pl(99,78),78)))| () Bool
    false)
  (define-fun |required(ezcsp__gt(nWeight(2),ezcsp__mn(ezcsp__pl(67,9),9)))| () Bool
    false)
  (define-fun |required(ezcsp__eq(nWeight(7),81))| () Bool
    false)
  (define-fun |leafPos(6,4)| () Bool
    true)
  (define-fun |required(ezcsp__eq(nWeight(4),ezcsp__pl(nWeight(3),85)))| () Bool
    false)
  (define-fun |required(ezcsp__leq(nWeight(5),ezcsp__mn(ezcsp__pl(6,18),6)))| () Bool
    false)
  (define-fun |leafPos(1,2)| () Bool
    false)
  (define-fun |required(ezcsp__eq(nWeight(1),15))| () Bool
    false)
  (define-fun |required(ezcsp__eq(nWeight(2),ezcsp__pl(nWeight(1),13)))| () Bool
    false)
  (define-fun |required(ezcsp__eq(nWeight(1),145))| () Bool
    false)
  (define-fun |required(ezcsp__eq(nWeight(7),ezcsp__pl(nWeight(6),14)))| () Bool
    false)
  (define-fun |nWeight(1)| () Int
    130)
  (define-fun |required(ezcsp__gt(nWeight(2),ezcsp__mn(ezcsp__pl(93,85),85)))| () Bool
    false)
  (define-fun |required(ezcsp__gt(nWeight(4),ezcsp__mn(ezcsp__pl(67,9),9)))| () Bool
    false)
  (define-fun |required(ezcsp__eq(nWeight(2),178))| () Bool
    false)
  (define-fun |required(ezcsp__gt(nWeight(6),ezcsp__mn(ezcsp__pl(6,18),6)))| () Bool
    false)
  (define-fun |required(ezcsp__eq(nWeight(1),120))| () Bool
    false)
  (define-fun |required(ezcsp__gt(nWeight(2),ezcsp__mn(ezcsp__pl(6,18),6)))| () Bool
    true)
  (define-fun |required(ezcsp__eq(nWeight(2),ezcsp__pl(nWeight(1),9)))| () Bool
    false)
  (define-fun |442| () Bool
    false)
  (define-fun |469| () Bool
    false)
  (define-fun |required(ezcsp__gt(nWeight(6),ezcsp__mn(ezcsp__pl(67,9),9)))| () Bool
    false)
  (define-fun |required(ezcsp__eq(nWeight(4),177))| () Bool
    false)
  (define-fun |required(ezcsp__leq(nWeight(2),ezcsp__mn(ezcsp__pl(40,61),40)))| () Bool
    false)
  (define-fun |453| () Bool
    true)
  (define-fun |439| () Bool
    false)
  (define-fun |leafPos(1,3)| () Bool
    false)
  (define-fun |443| () Bool
    false)
  (define-fun |473| () Bool
    false)
  (define-fun |leafPos(3,4)| () Bool
    false)
  (define-fun |leafPos(8,3)| () Bool
    true)
  (define-fun |required(ezcsp__eq(nWeight(1),105))| () Bool
    false)
  (define-fun |nWeight(7)| () Int
    145)
  (define-fun |required(ezcsp__leq(nWeight(2),ezcsp__mn(ezcsp__pl(52,99),52)))| () Bool
    false)
  (define-fun |required(ezcsp__leq(nWeight(1),ezcsp__mn(ezcsp__pl(67,9),9)))| () Bool
    false)
  (define-fun |leafPos(5,3)| () Bool
    false)
  (define-fun |required(ezcsp__eq(nWeight(6),ezcsp__pl(nWeight(5),52)))| () Bool
    false)
  (define-fun |460| () Bool
    false)
  (define-fun |456| () Bool
    false)
  (define-fun |445| () Bool
    false)
  (define-fun |required(ezcsp__eq(nWeight(4),24))| () Bool
    false)
  (define-fun |required(ezcsp__eq(nWeight(1),92))| () Bool
    false)
  (define-fun |required(ezcsp__eq(nWeight(1),87))| () Bool
    false)
  (define-fun |required(ezcsp__eq(nWeight(2),24))| () Bool
    false)
  (define-fun |required(ezcsp__gt(nWeight(3),ezcsp__mn(ezcsp__pl(52,99),52)))| () Bool
    false)
  (define-fun |448| () Bool
    false)
  (define-fun |required(ezcsp__eq(nWeight(5),101))| () Bool
    false)
  (define-fun |leafPos(5,4)| () Bool
    false)
  (define-fun |required(ezcsp__eq(nWeight(6),92))| () Bool
    false)
  (define-fun |leafPos(1,7)| () Bool
    false)
  (define-fun |leafPos(1,4)| () Bool
    false)
  (define-fun |required(ezcsp__eq(nWeight(1),82))| () Bool
    false)
  (define-fun |required(ezcsp__eq(nWeight(2),ezcsp__pl(nWeight(1),78)))| () Bool
    false)
  (define-fun |required(ezcsp__eq(nWeight(5),151))| () Bool
    false)
  (define-fun |required(ezcsp__eq(nWeight(4),ezcsp__pl(nWeight(3),40)))| () Bool
    false)
  (define-fun |483| () Bool
    false)
  (define-fun |474| () Bool
    false)
  (define-fun |required(ezcsp__eq(nWeight(1),106))| () Bool
    false)
  (define-fun |required(ezcsp__leq(nWeight(6),ezcsp__mn(ezcsp__pl(67,9),9)))| () Bool
    false)
  (define-fun |471| () Bool
    false)
  (define-fun |required(ezcsp__leq(nWeight(4),ezcsp__mn(ezcsp__pl(78,14),14)))| () Bool
    false)
  (define-fun |required(ezcsp__gt(nWeight(1),ezcsp__mn(ezcsp__pl(40,61),40)))| () Bool
    true)
  (define-fun |466| () Bool
    false)
  (define-fun |required(ezcsp__leq(nWeight(3),ezcsp__mn(ezcsp__pl(93,85),85)))| () Bool
    false)
  (define-fun |required(ezcsp__gt(nWeight(6),ezcsp__mn(ezcsp__pl(99,78),78)))| () Bool
    false)
  (define-fun |436| () Bool
    false)
  (define-fun |leafPos(6,0)| () Bool
    false)
  (define-fun |leafPos(7,2)| () Bool
    false)
  (define-fun |required(ezcsp__eq(nWeight(1),73))| () Bool
    false)
  (define-fun |required(ezcsp__leq(nWeight(2),ezcsp__mn(ezcsp__pl(68,13),13)))| () Bool
    false)
  (define-fun |required(ezcsp__leq(nWeight(5),ezcsp__mn(ezcsp__pl(68,13),13)))| () Bool
    false)
  (define-fun |required(ezcsp__eq(nWeight(3),92))| () Bool
    false)
  (define-fun |491| () Bool
    false)
  (define-fun |required(ezcsp__eq(nWeight(4),101))| () Bool
    false)
  (define-fun |required(ezcsp__eq(nWeight(1),58))| () Bool
    false)
  (define-fun |required(ezcsp__leq(nWeight(1),ezcsp__mn(ezcsp__pl(68,13),13)))| () Bool
    false)
  (define-fun |posColor(3,green)| () Bool
    true)
  (define-fun |required(ezcsp__eq(nWeight(4),ezcsp__pl(nWeight(3),52)))| () Bool
    false)
  (define-fun |475| () Bool
    false)
  (define-fun |required(ezcsp__gt(nWeight(2),ezcsp__mn(ezcsp__pl(68,13),13)))| () Bool
    false)
  (define-fun |required(ezcsp__gt(nWeight(5),ezcsp__mn(ezcsp__pl(93,85),85)))| () Bool
    false)
  (define-fun |465| () Bool
    false)
  (define-fun |449| () Bool
    false)
  (define-fun |required(ezcsp__eq(nWeight(1),153))| () Bool
    false)
  (define-fun |required(ezcsp__eq(nWeight(3),ezcsp__pl(nWeight(2),9)))| () Bool
    false)
  (define-fun |leafPos(8,0)| () Bool
    false)
  (define-fun |required(ezcsp__eq(nWeight(1),139))| () Bool
    false)
  (define-fun |required(ezcsp__eq(nWeight(1),119))| () Bool
    false)
  (define-fun |required(ezcsp__eq(nWeight(7),101))| () Bool
    false)
  (define-fun |posColor(5,green)| () Bool
    false)
  (define-fun |required(ezcsp__eq(nWeight(1),156))| () Bool
    false)
  (define-fun |required(ezcsp__leq(nWeight(3),ezcsp__mn(ezcsp__pl(67,9),9)))| () Bool
    true)
  (define-fun |required(ezcsp__eq(nWeight(1),104))| () Bool
    false)
  (define-fun |required(ezcsp__eq(nWeight(6),24))| () Bool
    false)
  (define-fun |required(ezcsp__eq(nWeight(7),151))| () Bool
    false)
  (define-fun |leafPos(8,4)| () Bool
    false)
  (define-fun |required(ezcsp__leq(nWeight(5),ezcsp__mn(ezcsp__pl(78,14),14)))| () Bool
    true)
  (define-fun |required(ezcsp__gt(nWeight(6),ezcsp__mn(ezcsp__pl(78,14),14)))| () Bool
    false)
  (define-fun |required(ezcsp__gt(nWeight(5),ezcsp__mn(ezcsp__pl(6,18),6)))| () Bool
    false)
  (define-fun |487| () Bool
    false)
  (define-fun |required(ezcsp__eq(nWeight(1),163))| () Bool
    false)
  (define-fun |leafPos(3,3)| () Bool
    false)
  (define-fun |required(ezcsp__gt(nWeight(5),ezcsp__mn(ezcsp__pl(52,99),52)))| () Bool
    false)
  (define-fun |posColor(4,red)| () Bool
    false)
  (define-fun |leafPos(5,6)| () Bool
    true)
  (define-fun |required(ezcsp__eq(nWeight(7),ezcsp__pl(nWeight(6),13)))| () Bool
    false)
  (define-fun |required(ezcsp__eq(nWeight(3),81))| () Bool
    false)
  (define-fun |required(ezcsp__leq(nWeight(3),ezcsp__mn(ezcsp__pl(68,13),13)))| () Bool
    false)
  (define-fun |required(ezcsp__eq(nWeight(7),ezcsp__pl(nWeight(6),85)))| () Bool
    true)
  (define-fun |required(ezcsp__eq(nWeight(2),92))| () Bool
    false)
  (define-fun |429| () Bool
    false)
  (define-fun |required(ezcsp__gt(nWeight(2),ezcsp__mn(ezcsp__pl(78,14),14)))| () Bool
    false)
  (define-fun |required(ezcsp__eq(nWeight(2),ezcsp__pl(nWeight(1),85)))| () Bool
    false)
  (define-fun |nWeight(4)| () Int
    33)
  (define-fun |required(ezcsp__gt(nWeight(6),ezcsp__mn(ezcsp__pl(68,13),13)))| () Bool
    false)
  (define-fun |required(ezcsp__eq(nWeight(2),177))| () Bool
    false)
  (define-fun |463| () Bool
    false)
  (define-fun |required(ezcsp__gt(nWeight(6),ezcsp__mn(ezcsp__pl(93,85),85)))| () Bool
    false)
  (define-fun |426| () Bool
    true)
  (define-fun |label_order(nWeight(1),1)| () Bool
    true)
  (define-fun |label_order(nWeight(2),1)| () Bool
    true)
  (define-fun |label_order(nWeight(3),1)| () Bool
    true)
  (define-fun |label_order(nWeight(4),1)| () Bool
    true)
  (define-fun |label_order(nWeight(5),1)| () Bool
    true)
  (define-fun |label_order(nWeight(6),1)| () Bool
    true)
  (define-fun |label_order(nWeight(7),1)| () Bool
    true)
  (define-fun |required(ezcsp__sum(list(nWeight,1),ezcsp__leq,539))| () Bool
    true)
  (define-fun |172| () Bool
    true)
  (define-fun |171| () Bool
    true)
  (define-fun |167| () Bool
    true)
  (define-fun |166| () Bool
    true)
  (define-fun |162| () Bool
    true)
  (define-fun |161| () Bool
    true)
  (define-fun |157| () Bool
    true)
  (define-fun |156| () Bool
    true)
  (define-fun |152| () Bool
    true)
  (define-fun |151| () Bool
    true)
  (define-fun |147| () Bool
    true)
  (define-fun |146| () Bool
    true)
  (define-fun |139| () Bool
    true)
  (define-fun |138| () Bool
    true)
  (define-fun |129| () Bool
    true)
  (define-fun |128| () Bool
    true)
  (define-fun |119| () Bool
    true)
  (define-fun |118| () Bool
    true)
  (define-fun |109| () Bool
    true)
  (define-fun |108| () Bool
    true)
  (define-fun |99| () Bool
    true)
  (define-fun |98| () Bool
    true)
  (define-fun |89| () Bool
    true)
  (define-fun |88| () Bool
    true)
  (define-fun |79| () Bool
    true)
  (define-fun |78| () Bool
    true)
  (define-fun |69| () Bool
    false)
  (define-fun |68| () Bool
    true)
  (define-fun |67| () Bool
    true)
  (define-fun |location(7)| () Bool
    true)
  (define-fun |location(6)| () Bool
    true)
  (define-fun |location(5)| () Bool
    true)
  (define-fun |location(4)| () Bool
    true)
  (define-fun |location(3)| () Bool
    true)
  (define-fun |location(2)| () Bool
    true)
  (define-fun |location(1)| () Bool
    true)
  (define-fun |leafCost(1,78)| () Bool
    true)
  (define-fun |leafCost(3,85)| () Bool
    true)
  (define-fun |leafCost(4,13)| () Bool
    true)
  (define-fun |leafCost(5,14)| () Bool
    true)
  (define-fun |leafCost(6,9)| () Bool
    true)
  (define-fun |leafCost(2,40)| () Bool
    true)
  (define-fun |leafCost(7,52)| () Bool
    true)
  (define-fun |leafCost(8,6)| () Bool
    true)
  (define-fun |cspvar(nWeight(1),0,539)| () Bool
    true)
  (define-fun |cspvar(nWeight(2),0,539)| () Bool
    true)
  (define-fun |cspvar(nWeight(3),0,539)| () Bool
    true)
  (define-fun |cspvar(nWeight(4),0,539)| () Bool
    true)
  (define-fun |cspvar(nWeight(5),0,539)| () Bool
    true)
  (define-fun |cspvar(nWeight(6),0,539)| () Bool
    true)
  (define-fun |cspvar(nWeight(7),0,539)| () Bool
    true)
  (define-fun |coloredPos(7)| () Bool
    true)
  (define-fun |coloredPos(6)| () Bool
    true)
  (define-fun |coloredPos(5)| () Bool
    true)
  (define-fun |coloredPos(4)| () Bool
    true)
  (define-fun |coloredPos(3)| () Bool
    true)
  (define-fun |coloredPos(2)| () Bool
    true)
  (define-fun |coloredPos(1)| () Bool
    true)
  (define-fun |leaf(1)| () Bool
    true)
  (define-fun |leaf(2)| () Bool
    true)
  (define-fun |leaf(3)| () Bool
    true)
  (define-fun |leaf(4)| () Bool
    true)
  (define-fun |leaf(5)| () Bool
    true)
  (define-fun |leaf(6)| () Bool
    true)
  (define-fun |leaf(7)| () Bool
    true)
  (define-fun |leaf(8)| () Bool
    true)
  (define-fun |max_total_weight(539)| () Bool
    true)
  (define-fun |num(8)| () Bool
    true)
  (define-fun |innerNode(7)| () Bool
    true)
  (define-fun |innerNode(6)| () Bool
    true)
  (define-fun |innerNode(5)| () Bool
    true)
  (define-fun |innerNode(4)| () Bool
    true)
  (define-fun |innerNode(3)| () Bool
    true)
  (define-fun |innerNode(2)| () Bool
    true)
  (define-fun |innerNode(1)| () Bool
    true)
  (define-fun |leafWeightCardinality(8,6,18)| () Bool
    true)
  (define-fun |leafWeightCardinality(7,52,99)| () Bool
    true)
  (define-fun |leafWeightCardinality(6,67,9)| () Bool
    true)
  (define-fun |leafWeightCardinality(5,78,14)| () Bool
    true)
  (define-fun |leafWeightCardinality(4,68,13)| () Bool
    true)
  (define-fun |leafWeightCardinality(3,93,85)| () Bool
    true)
  (define-fun |leafWeightCardinality(2,40,61)| () Bool
    true)
  (define-fun |leafWeightCardinality(1,99,78)| () Bool
    true)
  (define-fun |location(0)| () Bool
    true)
  (define-fun |color(green)| () Bool
    true)
  (define-fun |color(blue)| () Bool
    true)
  (define-fun |color(red)| () Bool
    true)
)
